Route #1: 145 19 102 28 109 103 101 136 151 99 46 82 165 35 66 111 37 106 81
Route #2: 77 143 20 51 41 32 25 134 71 142 40 12 83 121 113 96 76 161 22
Route #3: 153 122 80 4 131 144 72 114 61 133 155 140 24 55 43 88 125
Route #4: 100 64 104 87 6
Route #5: 110 17 29 30 3 115 137 38 85 147 52 11 73 33 54 60 159
Route #6: 45 31 93 56 39 152 132 150 5 154 117 149 98 116 157 86 53 47
Route #7: 9 130 146 164 89 112 123 2 14 78 58 13 105 108 65 50 21 139
Route #8: 135 120 141 16 160 18 97 15 129 124 63 163 69 49 10 158 7
Route #9: 36 27 166 79 42 75 34 107 167 95 91 162 92 148 118 44 67 126
Route #10: 138 74 23 84 70 156 57 59 62 128 127 48 119 94 26 8 90 68
